p tw 327 347
1 2
2 113
3 14
3 277
4 5
5 6
6 7
7 8
8 9
9 10
10 11
11 12
12 13
13 15
14 25
15 16
16 17
17 18
18 19
19 20
20 21
21 22
22 23
23 24
24 26
25 36
25 261
26 44
27 28
28 29
29 30
29 42
30 31
31 32
32 33
33 34
34 35
35 37
36 47
37 38
38 39
39 40
40 41
41 253
42 43
43 44
44 45
45 46
46 48
47 58
47 102
48 49
49 50
50 51
51 52
52 53
53 54
54 55
55 56
56 57
57 59
58 69
59 60
60 61
61 62
62 63
63 64
64 65
65 66
66 67
67 68
68 70
69 80
70 71
71 72
72 73
73 74
74 75
75 76
76 77
77 78
78 79
79 81
80 91
81 82
82 83
83 84
84 85
85 86
86 87
87 88
88 89
89 90
90 92
91 253
92 93
93 94
94 95
95 96
96 97
96 108
97 98
98 99
99 100
100 101
101 103
102 114
103 104
104 105
105 106
106 107
107 253
108 109
109 110
110 111
111 112
112 115
113 224
114 125
115 116
116 117
117 118
118 119
119 120
120 121
121 122
122 123
123 124
124 126
125 136
125 213
126 127
127 128
128 129
129 130
130 131
131 132
132 133
133 134
134 135
135 137
136 147
136 169
137 138
137 145
138 139
139 140
140 141
141 142
142 143
143 144
144 253
145 146
146 148
147 158
148 149
148 173
149 150
150 151
151 152
152 153
152 164
153 154
154 155
155 156
156 157
157 159
158 191
159 160
160 161
161 162
162 163
163 253
164 165
165 166
166 167
167 168
168 170
169 180
170 171
171 172
172 253
173 174
174 175
175 176
176 177
177 178
178 179
178 182
179 181
180 191
181 182
181 206
182 183
183 184
184 185
185 186
186 187
187 188
188 189
188 195
189 190
190 192
191 202
192 193
193 194
194 200
195 196
196 197
197 198
198 199
199 200
200 201
201 203
202 253
203 204
204 205
205 253
206 207
207 208
208 209
208 227
209 210
210 211
211 212
212 214
213 225
214 215
215 216
216 217
217 218
218 219
219 220
220 221
221 222
222 223
223 226
224 262
225 236
226 251
227 228
228 229
229 230
230 231
231 232
232 233
233 234
234 235
235 237
236 247
237 238
238 239
239 240
240 241
241 242
242 243
243 244
244 245
245 246
246 248
247 255
248 249
249 250
250 251
251 252
252 253
253 254
255 256
256 257
256 261
257 258
258 259
259 260
260 253
261 263
262 273
263 264
263 277
264 265
265 266
266 267
267 268
268 269
269 270
270 271
271 272
271 277
272 274
273 284
274 275
275 276
276 253
277 278
278 279
279 280
279 27
280 281
281 282
282 283
283 285
283 303
284 295
285 286
285 293
286 287
287 288
288 289
289 290
290 291
291 292
292 12
293 294
294 296
295 306
296 297
297 298
298 299
299 300
300 301
301 302
302 12
303 304
304 305
305 307
306 317
307 308
308 309
309 310
309 312
310 311
311 314
312 313
313 314
314 315
315 316
316 318
317 3
318 319
319 320
320 321
321 322
322 323
323 324
324 325
325 326
326 327
327 4
